c Random Network
p max    10      20
n         1  s
n        10  t
a       1       2       8
a       6       9      46
a       6       7       2
a       9       5      43
a       8       9      42
a       2       6      43
a       1       7      20
a       4       9      34
a       2       3      21
a       5       1      25
a       3       5      13
a       3       2       7
a       4       7      26
a       8       3      34
a       5       6      24
a       9      10      26
a       3       4       8
a       7       4       4
a      10       4      18
a       8       1      15
